instances/knapsack/discrete_knapsack_uncertainty/knapsack_90_11.lp
\ Model knapsack_90_11
\ LP format - for model browsing. Use MPS format to capture full model detail.
\ Signature: 0xc29ff4c0dcb79651
Minimize
  - 64 x[0] - 76 x[1] - 6 x[2] - 2 x[3] - 91 x[4] - 31 x[5] - 71 x[6]
   - 5 x[7] - 4 x[8] - 76 x[9] - 69 x[10] - 17 x[11] - 21 x[12] - 68 x[13]
   - 81 x[14] - 46 x[15] - 52 x[16] - 92 x[17] - 36 x[18] - 95 x[19]
   - 55 x[20] - 61 x[21] - 82 x[22] - 94 x[23] - 99 x[24] - 88 x[25]
   - 70 x[26] - x[27] - 20 x[28] - 10 x[29] - 47 x[30] - 10 x[31]
   - 34 x[32] - 57 x[33] - 9 x[34] - 55 x[35] - 55 x[36] - 89 x[37]
   - 80 x[38] - 37 x[39] - 34 x[40] - 19 x[41] - 63 x[42] - 21 x[43]
   - 36 x[44] - 65 x[45] - 30 x[46] - 30 x[47] - 58 x[48] - 63 x[49]
   - 49 x[50] - 84 x[51] - 29 x[52] - 23 x[53] - 46 x[54] - 32 x[55]
   - 4 x[56] - 58 x[57] - 34 x[58] - 97 x[59] - 74 x[60] - 60 x[61]
   - 27 x[62] - 59 x[63] - 64 x[64] - 87 x[65] - 67 x[66] - 39 x[67]
   - 66 x[68] - 15 x[69] - 83 x[70] - 21 x[71] - 63 x[72] - 51 x[73]
   - 80 x[74] - 76 x[75] - 44 x[76] - 63 x[77] - 70 x[78] - 57 x[79]
   - 73 x[80] - 56 x[81] - 39 x[82] - 28 x[83] - 23 x[84] - 22 x[85]
   - 60 x[86] - 5 x[87] - 34 x[88] - 92 x[89]
Subject To
 primal_upper: 19 x[0] + 76 x[1] + 62 x[2] + 59 x[3] + 24 x[4] + 61 x[5]
   + 41 x[6] + 31 x[7] + 93 x[8] + 10 x[9] + 71 x[10] + 31 x[11] + 44 x[12]
   + 88 x[13] + 72 x[14] + 68 x[15] + 41 x[16] + 56 x[17] + 49 x[18]
   + 30 x[19] + 37 x[20] + 71 x[21] + 8 x[22] + 50 x[23] + 4 x[24]
   + 52 x[25] + 38 x[26] + 75 x[27] + 9 x[28] + 75 x[29] + 77 x[30]
   + 51 x[31] + 75 x[32] + 45 x[33] + 96 x[34] + 85 x[35] + 92 x[36]
   + 64 x[37] + 36 x[38] + 86 x[39] + 67 x[40] + 29 x[41] + 38 x[42]
   + 65 x[43] + 83 x[44] + 14 x[45] + 85 x[46] + 69 x[47] + 87 x[48]
   + 84 x[49] + 42 x[50] + 76 x[51] + 65 x[52] + 52 x[53] + 52 x[54]
   + 43 x[55] + 65 x[56] + 74 x[57] + 84 x[58] + 90 x[59] + 36 x[60]
   + 6 x[61] + 27 x[62] + 82 x[63] + 71 x[64] + 76 x[65] + 32 x[66]
   + 18 x[67] + 44 x[68] + 13 x[69] + 77 x[70] + 57 x[71] + 50 x[72]
   + 79 x[73] + 19 x[74] + 84 x[75] + 70 x[76] + 27 x[77] + 44 x[78]
   + 22 x[79] + 77 x[80] + 57 x[81] + 14 x[82] + 25 x[83] + 61 x[84]
   + 33 x[85] + 23 x[86] + 52 x[87] + 30 x[88] + 67 x[89] + 1.9 r[0]
   + 7.6 r[1] + 6.2 r[2] + 5.9 r[3] + 2.4 r[4] + 6.1 r[5] + 4.1 r[6]
   + 3.1 r[7] + 9.3 r[8] + r[9] + 7.1 r[10] + 3.1 r[11] + 4.4 r[12]
   + 8.8 r[13] + 7.2 r[14] + 6.8 r[15] + 4.1 r[16] + 5.6 r[17] + 4.9 r[18]
   + 3 r[19] + 3.7 r[20] + 7.1 r[21] + 0.8 r[22] + 5 r[23] + 0.4 r[24]
   + 5.2 r[25] + 3.8 r[26] + 7.5 r[27] + 0.9 r[28] + 7.5 r[29] + 7.7 r[30]
   + 5.1 r[31] + 7.5 r[32] + 4.5 r[33] + 9.6 r[34] + 8.5 r[35] + 9.2 r[36]
   + 6.4 r[37] + 3.6 r[38] + 8.6 r[39] + 6.7 r[40] + 2.9 r[41] + 3.8 r[42]
   + 6.5 r[43] + 8.3 r[44] + 1.4 r[45] + 8.5 r[46] + 6.9 r[47] + 8.7 r[48]
   + 8.4 r[49] + 4.2 r[50] + 7.6 r[51] + 6.5 r[52] + 5.2 r[53] + 5.2 r[54]
   + 4.3 r[55] + 6.5 r[56] + 7.4 r[57] + 8.4 r[58] + 9 r[59] + 3.6 r[60]
   + 0.6 r[61] + 2.7 r[62] + 8.2 r[63] + 7.1 r[64] + 7.6 r[65] + 3.2 r[66]
   + 1.8 r[67] + 4.4 r[68] + 1.3 r[69] + 7.7 r[70] + 5.7 r[71] + 5 r[72]
   + 7.9 r[73] + 1.9 r[74] + 8.4 r[75] + 7 r[76] + 2.7 r[77] + 4.4 r[78]
   + 2.2 r[79] + 7.7 r[80] + 5.7 r[81] + 1.4 r[82] + 2.5 r[83] + 6.1 r[84]
   + 3.3 r[85] + 2.3 r[86] + 5.2 r[87] + 3 r[88] + 6.7 r[89] <= 456
 primal_lower: 0.8436150039525041 x[0] + 4.356183436170794 x[1]
   + 2.977363519396945 x[2] + 4.334656360178495 x[3]
   + 4.105973627251811 x[4] + 0.2268757773410051 x[5]
   + 1.57163566211674 x[6] + 2.193193202922939 x[7]
   + 2.980421580090251 x[8] + 3.712444693063462 x[9]
   + 1.269495069078774 x[10] + 1.625700384268591 x[11]
   + 0.7150289298364028 x[12] + 2.164530102676467 x[13]
   + 4.319826655235718 x[14] + 3.435473821461458 x[15]
   + 2.440694990568094 x[16] + 1.723208360311 x[17]
   + 3.941765681620371 x[18] + 1.942652998559479 x[19]
   + 3.128332810944848 x[20] + 1.056380177700871 x[21]
   + 0.00513183518420157 x[22] + 1.370395109867216 x[23]
   + 2.188423330245858 x[24] + 3.348425237434137 x[25]
   + 0.3033995117578098 x[26] + 3.195391886146898 x[27]
   + 2.706440680786236 x[28] + 4.061468237191994 x[29]
   + 4.179162541330384 x[30] + 3.663132378668254 x[31]
   + 1.168973819393906 x[32] + 4.490072277445153 x[33]
   + 1.780291133697179 x[34] + 3.492057611896408 x[35]
   + 2.336623090421126 x[36] + 3.733907705792909 x[37]
   + 1.1020468605163 x[38] + 4.643440602730751 x[39]
   + 2.158562817087029 x[40] + 0.6926470982441374 x[41]
   + 0.8820191981576976 x[42] + 1.632570010861011 x[43]
   + 2.796657950940276 x[44] + 0.9327396658302953 x[45]
   + 2.574904845694969 x[46] + 0.0567543299981434 x[47]
   + 0.6776741049547693 x[48] + 1.416457119010564 x[49]
   + 0.8458049334335502 x[50] + 3.137942997579924 x[51]
   + 1.75482668004628 x[52] + 3.189615824264066 x[53]
   + 0.6084981231885418 x[54] + 2.087095092623955 x[55]
   + 0.2193745198544239 x[56] + 2.888104306228521 x[57]
   + 0.00929631233627681 x[58] + 3.896580574577153 x[59]
   + 2.690339911254895 x[60] + 2.476803353737118 x[61]
   + 4.042387607305828 x[62] + 3.646974383780088 x[63]
   + 4.271119360509326 x[64] + 2.111147416353207 x[65]
   + 3.232267036205793 x[66] + 1.202433377638166 x[67]
   + 3.089121313622385 x[68] + 3.067094114866955 x[69]
   + 3.416391995021517 x[70] + 0.2979936147793527 x[71]
   + 3.073061303884316 x[72] + 1.180551313035378 x[73]
   + 1.029515576377347 x[74] + 3.482571723734965 x[75]
   + 0.4704372410875229 x[76] + 2.633310265932219 x[77]
   + 1.38691732089066 x[78] + 1.657901278848263 x[79]
   + 2.58402349422515 x[80] + 3.891554163649512 x[81]
   + 4.024393452012841 x[82] + 1.590029327150774 x[83]
   + 1.98006556556553 x[84] + 2.583422372107764 x[85]
   + 3.114011360850335 x[86] + 2.122126480337307 x[87]
   + 3.35616788863593 x[88] + 3.595459215736736 x[89] + 2 u[0] + 15 u[1]
   + 61 u[2] + 90 u[3] + 43 u[4] + 72 u[5] + 64 u[6] + 90 u[7] + 20 u[8]
   + 41 u[9] + 74 u[10] + 26 u[11] + 39 u[12] + 75 u[13] + 55 u[14]
   + 27 u[15] + 16 u[16] + 67 u[17] + 60 u[18] + 77 u[19] + 12 u[20]
   + 2 u[21] + 11 u[22] + 97 u[23] + 71 u[24] + 99 u[25] + 61 u[26]
   + 86 u[27] + 12 u[28] + 38 u[29] + 68 u[30] + 70 u[31] + 30 u[32]
   + 24 u[33] + 7 u[34] + 20 u[35] + 3 u[36] + 35 u[37] + 87 u[38]
   + 57 u[39] + 62 u[40] + 52 u[41] + 5 u[42] + 44 u[43] + 62 u[44]
   + 25 u[45] + 84 u[46] + 76 u[47] + 86 u[48] + 31 u[49] + 17 u[50]
   + 51 u[51] + 80 u[52] + 47 u[53] + 47 u[54] + 22 u[55] + 44 u[56]
   + 37 u[57] + 27 u[58] + 53 u[59] + 55 u[60] + 45 u[61] + 74 u[62]
   + 41 u[63] + 70 u[64] + 51 u[65] + 51 u[66] + u[67] + 31 u[68]
   + 92 u[69] + 100 u[70] + 16 u[71] + 77 u[72] + 66 u[73] + 22 u[74]
   + 43 u[75] + 25 u[76] + 30 u[77] + 67 u[78] + 73 u[79] + 48 u[80]
   + 76 u[81] + 73 u[82] + 28 u[83] + 24 u[84] + 8 u[85] + 86 u[86]
   + 79 u[87] + 37 u[88] + 70 u[89] <= 82867
 mccormick1[0]: - u[0] + r[0] <= 0
 mccormick1[1]: - u[1] + r[1] <= 0
 mccormick1[2]: - u[2] + r[2] <= 0
 mccormick1[3]: - u[3] + r[3] <= 0
 mccormick1[4]: - u[4] + r[4] <= 0
 mccormick1[5]: - u[5] + r[5] <= 0
 mccormick1[6]: - u[6] + r[6] <= 0
 mccormick1[7]: - u[7] + r[7] <= 0
 mccormick1[8]: - u[8] + r[8] <= 0
 mccormick1[9]: - u[9] + r[9] <= 0
 mccormick1[10]: - u[10] + r[10] <= 0
 mccormick1[11]: - u[11] + r[11] <= 0
 mccormick1[12]: - u[12] + r[12] <= 0
 mccormick1[13]: - u[13] + r[13] <= 0
 mccormick1[14]: - u[14] + r[14] <= 0
 mccormick1[15]: - u[15] + r[15] <= 0
 mccormick1[16]: - u[16] + r[16] <= 0
 mccormick1[17]: - u[17] + r[17] <= 0
 mccormick1[18]: - u[18] + r[18] <= 0
 mccormick1[19]: - u[19] + r[19] <= 0
 mccormick1[20]: - u[20] + r[20] <= 0
 mccormick1[21]: - u[21] + r[21] <= 0
 mccormick1[22]: - u[22] + r[22] <= 0
 mccormick1[23]: - u[23] + r[23] <= 0
 mccormick1[24]: - u[24] + r[24] <= 0
 mccormick1[25]: - u[25] + r[25] <= 0
 mccormick1[26]: - u[26] + r[26] <= 0
 mccormick1[27]: - u[27] + r[27] <= 0
 mccormick1[28]: - u[28] + r[28] <= 0
 mccormick1[29]: - u[29] + r[29] <= 0
 mccormick1[30]: - u[30] + r[30] <= 0
 mccormick1[31]: - u[31] + r[31] <= 0
 mccormick1[32]: - u[32] + r[32] <= 0
 mccormick1[33]: - u[33] + r[33] <= 0
 mccormick1[34]: - u[34] + r[34] <= 0
 mccormick1[35]: - u[35] + r[35] <= 0
 mccormick1[36]: - u[36] + r[36] <= 0
 mccormick1[37]: - u[37] + r[37] <= 0
 mccormick1[38]: - u[38] + r[38] <= 0
 mccormick1[39]: - u[39] + r[39] <= 0
 mccormick1[40]: - u[40] + r[40] <= 0
 mccormick1[41]: - u[41] + r[41] <= 0
 mccormick1[42]: - u[42] + r[42] <= 0
 mccormick1[43]: - u[43] + r[43] <= 0
 mccormick1[44]: - u[44] + r[44] <= 0
 mccormick1[45]: - u[45] + r[45] <= 0
 mccormick1[46]: - u[46] + r[46] <= 0
 mccormick1[47]: - u[47] + r[47] <= 0
 mccormick1[48]: - u[48] + r[48] <= 0
 mccormick1[49]: - u[49] + r[49] <= 0
 mccormick1[50]: - u[50] + r[50] <= 0
 mccormick1[51]: - u[51] + r[51] <= 0
 mccormick1[52]: - u[52] + r[52] <= 0
 mccormick1[53]: - u[53] + r[53] <= 0
 mccormick1[54]: - u[54] + r[54] <= 0
 mccormick1[55]: - u[55] + r[55] <= 0
 mccormick1[56]: - u[56] + r[56] <= 0
 mccormick1[57]: - u[57] + r[57] <= 0
 mccormick1[58]: - u[58] + r[58] <= 0
 mccormick1[59]: - u[59] + r[59] <= 0
 mccormick1[60]: - u[60] + r[60] <= 0
 mccormick1[61]: - u[61] + r[61] <= 0
 mccormick1[62]: - u[62] + r[62] <= 0
 mccormick1[63]: - u[63] + r[63] <= 0
 mccormick1[64]: - u[64] + r[64] <= 0
 mccormick1[65]: - u[65] + r[65] <= 0
 mccormick1[66]: - u[66] + r[66] <= 0
 mccormick1[67]: - u[67] + r[67] <= 0
 mccormick1[68]: - u[68] + r[68] <= 0
 mccormick1[69]: - u[69] + r[69] <= 0
 mccormick1[70]: - u[70] + r[70] <= 0
 mccormick1[71]: - u[71] + r[71] <= 0
 mccormick1[72]: - u[72] + r[72] <= 0
 mccormick1[73]: - u[73] + r[73] <= 0
 mccormick1[74]: - u[74] + r[74] <= 0
 mccormick1[75]: - u[75] + r[75] <= 0
 mccormick1[76]: - u[76] + r[76] <= 0
 mccormick1[77]: - u[77] + r[77] <= 0
 mccormick1[78]: - u[78] + r[78] <= 0
 mccormick1[79]: - u[79] + r[79] <= 0
 mccormick1[80]: - u[80] + r[80] <= 0
 mccormick1[81]: - u[81] + r[81] <= 0
 mccormick1[82]: - u[82] + r[82] <= 0
 mccormick1[83]: - u[83] + r[83] <= 0
 mccormick1[84]: - u[84] + r[84] <= 0
 mccormick1[85]: - u[85] + r[85] <= 0
 mccormick1[86]: - u[86] + r[86] <= 0
 mccormick1[87]: - u[87] + r[87] <= 0
 mccormick1[88]: - u[88] + r[88] <= 0
 mccormick1[89]: - u[89] + r[89] <= 0
 mccormick2[0]: - x[0] + r[0] <= 0
 mccormick2[1]: - x[1] + r[1] <= 0
 mccormick2[2]: - x[2] + r[2] <= 0
 mccormick2[3]: - x[3] + r[3] <= 0
 mccormick2[4]: - x[4] + r[4] <= 0
 mccormick2[5]: - x[5] + r[5] <= 0
 mccormick2[6]: - x[6] + r[6] <= 0
 mccormick2[7]: - x[7] + r[7] <= 0
 mccormick2[8]: - x[8] + r[8] <= 0
 mccormick2[9]: - x[9] + r[9] <= 0
 mccormick2[10]: - x[10] + r[10] <= 0
 mccormick2[11]: - x[11] + r[11] <= 0
 mccormick2[12]: - x[12] + r[12] <= 0
 mccormick2[13]: - x[13] + r[13] <= 0
 mccormick2[14]: - x[14] + r[14] <= 0
 mccormick2[15]: - x[15] + r[15] <= 0
 mccormick2[16]: - x[16] + r[16] <= 0
 mccormick2[17]: - x[17] + r[17] <= 0
 mccormick2[18]: - x[18] + r[18] <= 0
 mccormick2[19]: - x[19] + r[19] <= 0
 mccormick2[20]: - x[20] + r[20] <= 0
 mccormick2[21]: - x[21] + r[21] <= 0
 mccormick2[22]: - x[22] + r[22] <= 0
 mccormick2[23]: - x[23] + r[23] <= 0
 mccormick2[24]: - x[24] + r[24] <= 0
 mccormick2[25]: - x[25] + r[25] <= 0
 mccormick2[26]: - x[26] + r[26] <= 0
 mccormick2[27]: - x[27] + r[27] <= 0
 mccormick2[28]: - x[28] + r[28] <= 0
 mccormick2[29]: - x[29] + r[29] <= 0
 mccormick2[30]: - x[30] + r[30] <= 0
 mccormick2[31]: - x[31] + r[31] <= 0
 mccormick2[32]: - x[32] + r[32] <= 0
 mccormick2[33]: - x[33] + r[33] <= 0
 mccormick2[34]: - x[34] + r[34] <= 0
 mccormick2[35]: - x[35] + r[35] <= 0
 mccormick2[36]: - x[36] + r[36] <= 0
 mccormick2[37]: - x[37] + r[37] <= 0
 mccormick2[38]: - x[38] + r[38] <= 0
 mccormick2[39]: - x[39] + r[39] <= 0
 mccormick2[40]: - x[40] + r[40] <= 0
 mccormick2[41]: - x[41] + r[41] <= 0
 mccormick2[42]: - x[42] + r[42] <= 0
 mccormick2[43]: - x[43] + r[43] <= 0
 mccormick2[44]: - x[44] + r[44] <= 0
 mccormick2[45]: - x[45] + r[45] <= 0
 mccormick2[46]: - x[46] + r[46] <= 0
 mccormick2[47]: - x[47] + r[47] <= 0
 mccormick2[48]: - x[48] + r[48] <= 0
 mccormick2[49]: - x[49] + r[49] <= 0
 mccormick2[50]: - x[50] + r[50] <= 0
 mccormick2[51]: - x[51] + r[51] <= 0
 mccormick2[52]: - x[52] + r[52] <= 0
 mccormick2[53]: - x[53] + r[53] <= 0
 mccormick2[54]: - x[54] + r[54] <= 0
 mccormick2[55]: - x[55] + r[55] <= 0
 mccormick2[56]: - x[56] + r[56] <= 0
 mccormick2[57]: - x[57] + r[57] <= 0
 mccormick2[58]: - x[58] + r[58] <= 0
 mccormick2[59]: - x[59] + r[59] <= 0
 mccormick2[60]: - x[60] + r[60] <= 0
 mccormick2[61]: - x[61] + r[61] <= 0
 mccormick2[62]: - x[62] + r[62] <= 0
 mccormick2[63]: - x[63] + r[63] <= 0
 mccormick2[64]: - x[64] + r[64] <= 0
 mccormick2[65]: - x[65] + r[65] <= 0
 mccormick2[66]: - x[66] + r[66] <= 0
 mccormick2[67]: - x[67] + r[67] <= 0
 mccormick2[68]: - x[68] + r[68] <= 0
 mccormick2[69]: - x[69] + r[69] <= 0
 mccormick2[70]: - x[70] + r[70] <= 0
 mccormick2[71]: - x[71] + r[71] <= 0
 mccormick2[72]: - x[72] + r[72] <= 0
 mccormick2[73]: - x[73] + r[73] <= 0
 mccormick2[74]: - x[74] + r[74] <= 0
 mccormick2[75]: - x[75] + r[75] <= 0
 mccormick2[76]: - x[76] + r[76] <= 0
 mccormick2[77]: - x[77] + r[77] <= 0
 mccormick2[78]: - x[78] + r[78] <= 0
 mccormick2[79]: - x[79] + r[79] <= 0
 mccormick2[80]: - x[80] + r[80] <= 0
 mccormick2[81]: - x[81] + r[81] <= 0
 mccormick2[82]: - x[82] + r[82] <= 0
 mccormick2[83]: - x[83] + r[83] <= 0
 mccormick2[84]: - x[84] + r[84] <= 0
 mccormick2[85]: - x[85] + r[85] <= 0
 mccormick2[86]: - x[86] + r[86] <= 0
 mccormick2[87]: - x[87] + r[87] <= 0
 mccormick2[88]: - x[88] + r[88] <= 0
 mccormick2[89]: - x[89] + r[89] <= 0
 mccormick3[0]: x[0] + u[0] - r[0] <= 1
 mccormick3[1]: x[1] + u[1] - r[1] <= 1
 mccormick3[2]: x[2] + u[2] - r[2] <= 1
 mccormick3[3]: x[3] + u[3] - r[3] <= 1
 mccormick3[4]: x[4] + u[4] - r[4] <= 1
 mccormick3[5]: x[5] + u[5] - r[5] <= 1
 mccormick3[6]: x[6] + u[6] - r[6] <= 1
 mccormick3[7]: x[7] + u[7] - r[7] <= 1
 mccormick3[8]: x[8] + u[8] - r[8] <= 1
 mccormick3[9]: x[9] + u[9] - r[9] <= 1
 mccormick3[10]: x[10] + u[10] - r[10] <= 1
 mccormick3[11]: x[11] + u[11] - r[11] <= 1
 mccormick3[12]: x[12] + u[12] - r[12] <= 1
 mccormick3[13]: x[13] + u[13] - r[13] <= 1
 mccormick3[14]: x[14] + u[14] - r[14] <= 1
 mccormick3[15]: x[15] + u[15] - r[15] <= 1
 mccormick3[16]: x[16] + u[16] - r[16] <= 1
 mccormick3[17]: x[17] + u[17] - r[17] <= 1
 mccormick3[18]: x[18] + u[18] - r[18] <= 1
 mccormick3[19]: x[19] + u[19] - r[19] <= 1
 mccormick3[20]: x[20] + u[20] - r[20] <= 1
 mccormick3[21]: x[21] + u[21] - r[21] <= 1
 mccormick3[22]: x[22] + u[22] - r[22] <= 1
 mccormick3[23]: x[23] + u[23] - r[23] <= 1
 mccormick3[24]: x[24] + u[24] - r[24] <= 1
 mccormick3[25]: x[25] + u[25] - r[25] <= 1
 mccormick3[26]: x[26] + u[26] - r[26] <= 1
 mccormick3[27]: x[27] + u[27] - r[27] <= 1
 mccormick3[28]: x[28] + u[28] - r[28] <= 1
 mccormick3[29]: x[29] + u[29] - r[29] <= 1
 mccormick3[30]: x[30] + u[30] - r[30] <= 1
 mccormick3[31]: x[31] + u[31] - r[31] <= 1
 mccormick3[32]: x[32] + u[32] - r[32] <= 1
 mccormick3[33]: x[33] + u[33] - r[33] <= 1
 mccormick3[34]: x[34] + u[34] - r[34] <= 1
 mccormick3[35]: x[35] + u[35] - r[35] <= 1
 mccormick3[36]: x[36] + u[36] - r[36] <= 1
 mccormick3[37]: x[37] + u[37] - r[37] <= 1
 mccormick3[38]: x[38] + u[38] - r[38] <= 1
 mccormick3[39]: x[39] + u[39] - r[39] <= 1
 mccormick3[40]: x[40] + u[40] - r[40] <= 1
 mccormick3[41]: x[41] + u[41] - r[41] <= 1
 mccormick3[42]: x[42] + u[42] - r[42] <= 1
 mccormick3[43]: x[43] + u[43] - r[43] <= 1
 mccormick3[44]: x[44] + u[44] - r[44] <= 1
 mccormick3[45]: x[45] + u[45] - r[45] <= 1
 mccormick3[46]: x[46] + u[46] - r[46] <= 1
 mccormick3[47]: x[47] + u[47] - r[47] <= 1
 mccormick3[48]: x[48] + u[48] - r[48] <= 1
 mccormick3[49]: x[49] + u[49] - r[49] <= 1
 mccormick3[50]: x[50] + u[50] - r[50] <= 1
 mccormick3[51]: x[51] + u[51] - r[51] <= 1
 mccormick3[52]: x[52] + u[52] - r[52] <= 1
 mccormick3[53]: x[53] + u[53] - r[53] <= 1
 mccormick3[54]: x[54] + u[54] - r[54] <= 1
 mccormick3[55]: x[55] + u[55] - r[55] <= 1
 mccormick3[56]: x[56] + u[56] - r[56] <= 1
 mccormick3[57]: x[57] + u[57] - r[57] <= 1
 mccormick3[58]: x[58] + u[58] - r[58] <= 1
 mccormick3[59]: x[59] + u[59] - r[59] <= 1
 mccormick3[60]: x[60] + u[60] - r[60] <= 1
 mccormick3[61]: x[61] + u[61] - r[61] <= 1
 mccormick3[62]: x[62] + u[62] - r[62] <= 1
 mccormick3[63]: x[63] + u[63] - r[63] <= 1
 mccormick3[64]: x[64] + u[64] - r[64] <= 1
 mccormick3[65]: x[65] + u[65] - r[65] <= 1
 mccormick3[66]: x[66] + u[66] - r[66] <= 1
 mccormick3[67]: x[67] + u[67] - r[67] <= 1
 mccormick3[68]: x[68] + u[68] - r[68] <= 1
 mccormick3[69]: x[69] + u[69] - r[69] <= 1
 mccormick3[70]: x[70] + u[70] - r[70] <= 1
 mccormick3[71]: x[71] + u[71] - r[71] <= 1
 mccormick3[72]: x[72] + u[72] - r[72] <= 1
 mccormick3[73]: x[73] + u[73] - r[73] <= 1
 mccormick3[74]: x[74] + u[74] - r[74] <= 1
 mccormick3[75]: x[75] + u[75] - r[75] <= 1
 mccormick3[76]: x[76] + u[76] - r[76] <= 1
 mccormick3[77]: x[77] + u[77] - r[77] <= 1
 mccormick3[78]: x[78] + u[78] - r[78] <= 1
 mccormick3[79]: x[79] + u[79] - r[79] <= 1
 mccormick3[80]: x[80] + u[80] - r[80] <= 1
 mccormick3[81]: x[81] + u[81] - r[81] <= 1
 mccormick3[82]: x[82] + u[82] - r[82] <= 1
 mccormick3[83]: x[83] + u[83] - r[83] <= 1
 mccormick3[84]: x[84] + u[84] - r[84] <= 1
 mccormick3[85]: x[85] + u[85] - r[85] <= 1
 mccormick3[86]: x[86] + u[86] - r[86] <= 1
 mccormick3[87]: x[87] + u[87] - r[87] <= 1
 mccormick3[88]: x[88] + u[88] - r[88] <= 1
 mccormick3[89]: x[89] + u[89] - r[89] <= 1
Bounds
Binaries
 x[0] x[1] x[2] x[3] x[4] x[5] x[6] x[7] x[8] x[9] x[10] x[11] x[12] x[13]
 x[14] x[15] x[16] x[17] x[18] x[19] x[20] x[21] x[22] x[23] x[24] x[25]
 x[26] x[27] x[28] x[29] x[30] x[31] x[32] x[33] x[34] x[35] x[36] x[37]
 x[38] x[39] x[40] x[41] x[42] x[43] x[44] x[45] x[46] x[47] x[48] x[49]
 x[50] x[51] x[52] x[53] x[54] x[55] x[56] x[57] x[58] x[59] x[60] x[61]
 x[62] x[63] x[64] x[65] x[66] x[67] x[68] x[69] x[70] x[71] x[72] x[73]
 x[74] x[75] x[76] x[77] x[78] x[79] x[80] x[81] x[82] x[83] x[84] x[85]
 x[86] x[87] x[88] x[89] u[0] u[1] u[2] u[3] u[4] u[5] u[6] u[7] u[8] u[9]
 u[10] u[11] u[12] u[13] u[14] u[15] u[16] u[17] u[18] u[19] u[20] u[21]
 u[22] u[23] u[24] u[25] u[26] u[27] u[28] u[29] u[30] u[31] u[32] u[33]
 u[34] u[35] u[36] u[37] u[38] u[39] u[40] u[41] u[42] u[43] u[44] u[45]
 u[46] u[47] u[48] u[49] u[50] u[51] u[52] u[53] u[54] u[55] u[56] u[57]
 u[58] u[59] u[60] u[61] u[62] u[63] u[64] u[65] u[66] u[67] u[68] u[69]
 u[70] u[71] u[72] u[73] u[74] u[75] u[76] u[77] u[78] u[79] u[80] u[81]
 u[82] u[83] u[84] u[85] u[86] u[87] u[88] u[89] r[0] r[1] r[2] r[3] r[4]
 r[5] r[6] r[7] r[8] r[9] r[10] r[11] r[12] r[13] r[14] r[15] r[16] r[17]
 r[18] r[19] r[20] r[21] r[22] r[23] r[24] r[25] r[26] r[27] r[28] r[29]
 r[30] r[31] r[32] r[33] r[34] r[35] r[36] r[37] r[38] r[39] r[40] r[41]
 r[42] r[43] r[44] r[45] r[46] r[47] r[48] r[49] r[50] r[51] r[52] r[53]
 r[54] r[55] r[56] r[57] r[58] r[59] r[60] r[61] r[62] r[63] r[64] r[65]
 r[66] r[67] r[68] r[69] r[70] r[71] r[72] r[73] r[74] r[75] r[76] r[77]
 r[78] r[79] r[80] r[81] r[82] r[83] r[84] r[85] r[86] r[87] r[88] r[89]
End
