instances/knapsack/discrete_knapsack_uncertainty/knapsack_90_11.kp
22549
90
456

19 1.9 64
76 7.6 76
62 6.2 6
59 5.9 2
24 2.4 91
61 6.1 31
41 4.1 71
31 3.1 5
93 9.3 4
10 1.0 76
71 7.1 69
31 3.1 17
44 4.4 21
88 8.8 68
72 7.2 81
68 6.8 46
41 4.1 52
56 5.6 92
49 4.9 36
30 3.0 95
37 3.7 55
71 7.1 61
8 0.8 82
50 5.0 94
4 0.4 99
52 5.2 88
38 3.8 70
75 7.5 1
9 0.9 20
75 7.5 10
77 7.7 47
51 5.1 10
75 7.5 34
45 4.5 57
96 9.6 9
85 8.5 55
92 9.2 55
64 6.4 89
36 3.6 80
86 8.6 37
67 6.7 34
29 2.9 19
38 3.8 63
65 6.5 21
83 8.3 36
14 1.4 65
85 8.5 30
69 6.9 30
87 8.7 58
84 8.4 63
42 4.2 49
76 7.6 84
65 6.5 29
52 5.2 23
52 5.2 46
43 4.3 32
65 6.5 4
74 7.4 58
84 8.4 34
90 9.0 97
36 3.6 74
6 0.6 60
27 2.7 27
82 8.2 59
71 7.1 64
76 7.6 87
32 3.2 67
18 1.8 39
44 4.4 66
13 1.3 15
77 7.7 83
57 5.7 21
50 5.0 63
79 7.9 51
19 1.9 80
84 8.4 76
70 7.0 44
27 2.7 63
44 4.4 70
22 2.2 57
77 7.7 73
57 5.7 56
14 1.4 39
25 2.5 28
61 6.1 23
33 3.3 22
23 2.3 60
52 5.2 5
30 3.0 34
67 6.7 92

82867
420

[0.8436150039525041 4.356183436170794 2.9773635193969454 4.334656360178495 4.105973627251811 0.22687577734100509 1.57163566211674 2.1931932029229393 2.9804215800902507 3.712444693063462 1.2694950690787739 1.625700384268591 0.7150289298364028 2.164530102676467 4.319826655235718 3.435473821461458 2.440694990568094 1.723208360311 3.9417656816203714 1.942652998559479 3.1283328109448476 1.0563801777008706 0.005131835184201572 1.3703951098672162 2.1884233302458576 3.348425237434137 0.3033995117578098 3.1953918861468975 2.706440680786236 4.061468237191994 4.179162541330384 3.663132378668254 1.168973819393906 4.490072277445153 1.780291133697179 3.492057611896408 2.336623090421126 3.7339077057929093 1.1020468605163003 4.643440602730751 2.1585628170870286 0.6926470982441374 0.8820191981576976 1.6325700108610108 2.796657950940276 0.9327396658302953 2.5749048456949692 0.05675432999814338 0.6776741049547693 1.416457119010564 0.8458049334335502 3.1379429975799242 1.75482668004628 3.1896158242640658 0.6084981231885418 2.087095092623955 0.21937451985442394 2.888104306228521 0.009296312336276813 3.8965805745771527 2.690339911254895 2.4768033537371177 4.042387607305828 3.6469743837800883 4.271119360509326 2.1111474163532074 3.232267036205793 1.2024333776381657 3.0891213136223845 3.0670941148669555 3.416391995021517 0.29799361477935266 3.0730613038843155 1.1805513130353777 1.029515576377347 3.482571723734965 0.4704372410875229 2.633310265932219 1.38691732089066 1.6579012788482632 2.5840234942251503 3.891554163649512 4.024393452012841 1.590029327150774 1.9800655655655297 2.583422372107764 3.1140113608503355 2.1221264803373066 3.35616788863593 3.5954592157367355]

[2 15 61 90 43 72 64 90 20 41 74 26 39 75 55 27 16 67 60 77 12 2 11 97 71 99 61 86 12 38 68 70 30 24 7 20 3 35 87 57 62 52 5 44 62 25 84 76 86 31 17 51 80 47 47 22 44 37 27 53 55 45 74 41 70 51 51 1 31 92 100 16 77 66 22 43 25 30 67 73 48 76 73 28 24 8 86 79 37 70]
